Traveling Salesman Problem/TSP_generados/Aleatorio1620390882_7.tsp
NAME: Aleatorio1620390882_7.tsp
COMMENT: Randomly generated scenario
TYPE: TSP
DIMENSION: 7
EDGE_WEIGHT_TYPE: ATT
NODE_COORD_SECTION
1 46.15 34.29
2 42.39 41.09
3 8.85 44.24
4 9.15 22.03
5 18.64 30.39
6 36.12 12.97
7 21.33 21.04
