Traveling Salesman Problem/TSP_generados/Aleatorio1620390882_7.opt.tour
NAME: Aleatorio1620390882_7.opt.tour
COMMENT: Optimal solution for Aleatorio1620390882_7 (123.69581659428935)
TYPE: TOUR
DIMENSION: 7
TOUR_SECTION
1 6 7 4 5 3 2
-1
EOF
